5 5
4 80 3 25 0 12 2 71 1 39
2 17 0 45 3 11 4 70 1 23
3 91 0 70 2 38 1 2 4 86
3 84 0 89 4 79 2 93 1 72
4 37 0 49 2 52 1 33 3 22
-1
0 2 3 5
0 3 5
0 1 5
0 1 2 3 5
0 1 3 4 5
-2
138 163 263
111 248
97 295
131 236 378 594
56 152 215 246

477 8
21 16 2 6 11
23 4 9 13 19
5 22 3 18 12
15 1 10 24 7
20 0 17 8 14
